Cost: 725
0-38-9-49-5-46-0
0-13-25-14-6-0
0-29-20-35-36-3-22-0
0-10-33-45-15-44-37-0
0-11-2-32-0
0-17-42-19-40-41-0
0-1-28-31-26-8-48-0
0-16-50-21-34-30-0
0-24-43-7-23-27-0
0-18-4-47-12-0
Cost: 725
0-16-50-21-34-30-0
0-13-25-14-6-0
0-29-20-35-36-3-22-0
0-10-33-45-15-44-37-0
0-24-43-7-23-27-0
0-41-19-40-42-17-0
0-1-28-31-26-8-48-0
0-46-38-9-49-5-0
0-32-2-11-0
0-12-47-4-18-0
Cost: 725
0-38-9-49-5-46-0
0-13-25-14-6-0
0-29-20-35-36-3-22-0
0-10-33-45-15-44-37-0
0-11-2-32-0
0-17-42-19-40-41-0
0-1-28-31-26-8-48-0
0-16-50-21-34-30-0
0-24-43-7-23-27-0
0-18-4-47-12-0
Cost: 725
0-24-43-7-23-27-0
0-46-38-9-49-5-0
0-13-25-14-6-0
0-48-8-26-31-28-1-0
0-12-47-4-18-0
0-10-33-45-15-44-37-0
0-11-2-32-0
0-41-19-40-42-17-0
0-29-20-35-36-3-22-0
0-30-34-21-50-16-0
Cost: 725
0-30-34-21-50-16-0
0-13-25-14-6-0
0-32-2-11-0
0-24-43-7-23-27-0
0-37-44-15-45-33-10-0
0-41-19-40-42-17-0
0-5-49-9-38-46-0
0-1-28-31-26-8-48-0
0-18-4-47-12-0
0-29-20-35-36-3-22-0
Cost: 725
0-29-20-35-36-3-22-0
0-46-5-49-9-38-0
0-13-25-14-6-0
0-17-42-40-19-41-0
0-27-23-7-43-24-0
0-10-33-45-15-44-37-0
0-32-2-11-0
0-1-28-31-26-8-48-0
0-30-34-21-50-16-0
0-18-4-47-12-0
Cost: 725
0-18-4-47-12-0
0-10-33-45-15-44-37-0
0-46-38-9-49-5-0
0-32-2-11-0
0-1-28-31-26-8-48-0
0-13-25-14-6-0
0-29-20-35-36-3-22-0
0-30-34-21-50-16-0
0-24-43-7-23-27-0
0-17-42-19-40-41-0
Cost: 725
0-18-4-47-12-0
0-10-33-45-15-44-37-0
0-46-38-9-49-5-0
0-32-2-11-0
0-1-28-31-26-8-48-0
0-13-25-14-6-0
0-29-20-35-36-3-22-0
0-30-34-21-50-16-0
0-24-43-7-23-27-0
0-17-42-19-40-41-0
Cost: 725
0-18-4-47-12-0
0-10-33-45-15-44-37-0
0-46-38-9-49-5-0
0-32-2-11-0
0-1-28-31-26-8-48-0
0-13-25-14-6-0
0-29-20-35-36-3-22-0
0-30-34-21-50-16-0
0-24-43-7-23-27-0
0-17-42-19-40-41-0
Cost: 725
0-18-4-47-12-0
0-10-33-45-15-44-37-0
0-46-38-9-49-5-0
0-32-2-11-0
0-1-28-31-26-8-48-0
0-13-25-14-6-0
0-29-20-35-36-3-22-0
0-30-34-21-50-16-0
0-24-43-7-23-27-0
0-17-42-19-40-41-0
Cost: 725
0-18-4-47-12-0
0-10-33-45-15-44-37-0
0-46-38-9-49-5-0
0-32-2-11-0
0-1-28-31-26-8-48-0
0-13-25-14-6-0
0-29-20-35-36-3-22-0
0-30-34-21-50-16-0
0-24-43-7-23-27-0
0-17-42-19-40-41-0
Cost: 725
0-18-4-47-12-0
0-10-33-45-15-44-37-0
0-46-38-9-49-5-0
0-32-2-11-0
0-1-28-31-26-8-48-0
0-13-25-14-6-0
0-29-20-35-36-3-22-0
0-30-34-21-50-16-0
0-24-43-7-23-27-0
0-17-42-19-40-41-0
Cost: 725
0-18-4-47-12-0
0-10-33-45-15-44-37-0
0-46-38-9-49-5-0
0-32-2-11-0
0-1-28-31-26-8-48-0
0-13-25-14-6-0
0-29-20-35-36-3-22-0
0-30-34-21-50-16-0
0-24-43-7-23-27-0
0-17-42-19-40-41-0
Cost: 725
0-46-38-9-49-5-0
0-6-14-25-13-0
0-1-28-31-26-8-48-0
0-30-34-21-50-16-0
0-27-23-7-43-24-0
0-17-42-40-19-41-0
0-29-20-35-36-3-22-0
0-10-33-45-15-44-37-0
0-32-2-11-0
0-12-47-4-18-0
Cost: 725
0-18-4-47-12-0
0-10-33-45-15-44-37-0
0-46-38-9-49-5-0
0-32-2-11-0
0-1-28-31-26-8-48-0
0-13-25-14-6-0
0-29-20-35-36-3-22-0
0-30-34-21-50-16-0
0-24-43-7-23-27-0
0-17-42-19-40-41-0
Cost: 725
0-18-4-47-12-0
0-10-33-45-15-44-37-0
0-46-38-9-49-5-0
0-32-2-11-0
0-1-28-31-26-8-48-0
0-13-25-14-6-0
0-29-20-35-36-3-22-0
0-30-34-21-50-16-0
0-24-43-7-23-27-0
0-17-42-19-40-41-0
Cost: 725
0-18-4-47-12-0
0-10-33-45-15-44-37-0
0-46-38-9-49-5-0
0-32-2-11-0
0-1-28-31-26-8-48-0
0-13-25-14-6-0
0-29-20-35-36-3-22-0
0-30-34-21-50-16-0
0-24-43-7-23-27-0
0-17-42-19-40-41-0
Cost: 725
0-37-44-15-45-33-10-0
0-38-9-49-5-46-0
0-12-47-4-18-0
0-27-23-7-43-24-0
0-16-50-21-34-30-0
0-29-20-35-36-3-22-0
0-41-19-40-42-17-0
0-13-25-14-6-0
0-1-28-31-26-8-48-0
0-11-2-32-0
Cost: 725
0-38-9-49-5-46-0
0-48-8-26-31-28-1-0
0-13-25-14-6-0
0-22-3-36-35-20-29-0
0-16-50-21-34-30-0
0-18-4-47-12-0
0-10-33-45-15-44-37-0
0-32-2-11-0
0-17-42-40-19-41-0
0-24-43-7-23-27-0
Cost: 725
0-38-9-49-5-46-0
0-48-8-26-31-28-1-0
0-13-25-14-6-0
0-22-3-36-35-20-29-0
0-16-50-21-34-30-0
0-18-4-47-12-0
0-10-33-45-15-44-37-0
0-32-2-11-0
0-17-42-40-19-41-0
0-24-43-7-23-27-0
Cost: 725
0-10-33-45-15-44-37-0
0-30-34-21-50-16-0
0-18-4-47-12-0
0-48-8-26-31-28-1-0
0-41-19-40-42-17-0
0-22-3-36-35-20-29-0
0-38-9-49-5-46-0
0-32-2-11-0
0-13-25-14-6-0
0-27-23-7-43-24-0
Cost: 725
0-10-33-45-15-44-37-0
0-30-34-21-50-16-0
0-18-4-47-12-0
0-48-8-26-31-28-1-0
0-41-19-40-42-17-0
0-22-3-36-35-20-29-0
0-38-9-49-5-46-0
0-32-2-11-0
0-13-25-14-6-0
0-27-23-7-43-24-0
Cost: 725
0-10-33-45-15-44-37-0
0-5-49-9-38-46-0
0-18-4-47-12-0
0-48-8-26-31-28-1-0
0-16-50-21-34-30-0
0-13-25-14-6-0
0-32-2-11-0
0-27-23-7-43-24-0
0-41-19-40-42-17-0
0-22-3-36-35-20-29-0
Cost: 725
0-10-33-45-15-44-37-0
0-30-34-21-50-16-0
0-18-4-47-12-0
0-48-8-26-31-28-1-0
0-41-19-40-42-17-0
0-22-3-36-35-20-29-0
0-38-9-49-5-46-0
0-32-2-11-0
0-13-25-14-6-0
0-27-23-7-43-24-0
Cost: 725
0-37-44-15-45-33-10-0
0-38-9-49-5-46-0
0-12-47-4-18-0
0-27-23-7-43-24-0
0-16-50-21-34-30-0
0-29-20-35-36-3-22-0
0-41-19-40-42-17-0
0-13-25-14-6-0
0-1-28-31-26-8-48-0
0-11-2-32-0
Cost: 725
0-38-9-49-5-46-0
0-48-8-26-31-28-1-0
0-13-25-14-6-0
0-22-3-36-35-20-29-0
0-16-50-21-34-30-0
0-18-4-47-12-0
0-10-33-45-15-44-37-0
0-32-2-11-0
0-17-42-40-19-41-0
0-24-43-7-23-27-0
Cost: 725
0-10-33-45-15-44-37-0
0-27-23-7-43-24-0
0-18-4-47-12-0
0-22-3-36-35-20-29-0
0-41-19-40-42-17-0
0-5-49-9-38-46-0
0-13-25-14-6-0
0-11-2-32-0
0-16-50-21-34-30-0
0-1-28-31-26-8-48-0
Cost: 734
0-37-44-15-45-33-10-0
0-5-9-11-46-0
0-12-47-4-18-0
0-16-21-29-2-32-0
0-48-8-26-31-1-27-0
0-50-34-30-49-38-0
0-13-25-14-6-0
0-24-43-7-23-0
0-22-28-3-36-35-20-0
0-41-40-19-42-17-0
Cost: 728
0-50-34-21-16-46-0
0-18-4-47-12-0
0-1-28-31-26-8-48-0
0-38-9-30-10-49-5-0
0-17-42-19-40-41-0
0-37-44-45-33-15-0
0-6-14-25-13-0
0-22-3-36-35-20-29-0
0-11-2-32-0
0-27-23-7-43-24-0
Cost: 725
0-30-34-21-50-16-0
0-6-14-25-13-0
0-17-42-19-40-41-0
0-29-20-35-36-3-22-0
0-1-28-31-26-8-48-0
0-10-33-45-15-44-37-0
0-38-9-49-5-46-0
0-27-23-7-43-24-0
0-32-2-11-0
0-12-47-4-18-0
Cost: 725
0-29-20-35-36-3-22-0
0-10-33-45-15-44-37-0
0-18-4-47-12-0
0-1-28-31-26-8-48-0
0-30-34-21-50-16-0
0-38-9-49-5-46-0
0-13-25-14-6-0
0-27-23-7-43-24-0
0-32-2-11-0
0-41-19-40-42-17-0
